Instance name: /home/cuong/CLionProjects/uMV-FSTSP/50_dis_rand_ins/v19
Write arg val: 1

drone speed: 1 miles/minute
uav non-eligible customer: 6 11 
Printing tau:
0 21.0543 59.8707 33.2872 32.745 52.1834 52.4049 49.6339 72.9844 67.9787 91.1016 0 
21.0543 0 50.8847 35.1183 23.7591 43.1974 43.4189 38.708 51.9301 58.9927 82.1156 21.0543 
59.8707 50.8847 0 26.5835 40.9011 49.5889 43.6043 78.1011 101.452 47.3814 36.3812 59.8707 
33.2872 35.1183 26.5835 0 26.4979 35.1856 29.201 63.6978 87.0484 34.6915 57.8144 33.2872 
32.745 23.7591 40.9011 26.4979 0 19.4384 19.6599 37.1999 60.5505 35.2337 58.3566 32.745 
52.1834 43.1974 49.5889 35.1856 19.4384 0 5.98463 28.5122 51.8627 15.7953 38.9182 52.1834 
52.4049 43.4189 43.6043 29.201 19.6599 5.98463 0 34.4968 57.8474 15.5738 38.6967 52.4049 
49.6339 38.708 78.1011 63.6978 37.1999 28.5122 34.4968 0 23.3506 30.7197 43.4076 49.6339 
72.9844 51.9301 101.452 87.0484 60.5505 51.8627 57.8474 23.3506 0 54.0702 65.0705 72.9844 
67.9787 58.9927 47.3814 34.6915 35.2337 15.7953 15.5738 30.7197 54.0702 0 23.1229 67.9787 
91.1016 82.1156 36.3812 57.8144 58.3566 38.9182 38.6967 43.4076 65.0705 23.1229 0 91.1016 
0 0 0 0 0 0 0 0 0 0 0 0 
Printing tau_prime:
0 6.07009 17.5788 9.58208 9.28774 14.9277 14.464 18.2526 22.3918 18.7103 24.2479 0 
6.07009 0 18.8279 11.3243 6.70193 11.4545 11.6196 12.7586 16.3852 15.6531 22.0512 6.07009 
17.5788 18.8279 0 8.01718 13.0139 13.3063 11.7306 20.9599 27.294 12.7465 12.714 17.5788 
9.58208 11.3243 8.01718 0 7.02778 10.5903 9.25493 17.3171 23.2104 12.6921 16.4007 9.58208 
9.28774 6.70193 13.0139 7.02778 0 5.64576 5.26216 10.6308 16.2619 9.49944 15.5205 9.28774 
14.9277 11.4545 13.3063 10.5903 5.64576 0 1.588 7.65358 13.991 4.22906 10.8978 14.9277 
14.464 11.6196 11.7306 9.25493 5.26216 1.588 0 9.23225 15.5634 4.24934 10.4382 14.464 
18.2526 12.7586 20.9599 17.3171 10.6308 7.65358 9.23225 0 6.34448 9.76141 15.9645 18.2526 
22.3918 16.3852 27.294 23.2104 16.2619 13.991 15.5634 6.34448 0 15.8523 21.5399 22.3918 
18.7103 15.6531 12.7465 12.6921 9.49944 4.22906 4.24934 9.76141 15.8523 0 6.78986 18.7103 
24.2479 22.0512 12.714 16.4007 15.5205 10.8978 10.4382 15.9645 21.5399 6.78986 0 24.2479 
0 0 0 0 0 0 0 0 0 0 0 0 
Version identifier: 22.1.1.0 | 2022-11-28 | 9160aff4d
CPXPARAM_MIP_Tolerances_Integrality              0
Tried aggregator 1 time.
MIP Presolve eliminated 1 rows and 12 columns.
MIP Presolve modified 20 coefficients.
Reduced MIP has 122 rows, 120 columns, and 510 nonzeros.
Reduced MIP has 110 binaries, 0 generals, 0 SOSs, and 0 indicators.
Presolve time = 0.00 sec. (0.27 ticks)
Found incumbent of value 473.848130 after 0.00 sec. (0.75 ticks)
Probing time = 0.00 sec. (0.26 ticks)
Cover probing fixed 0 vars, tightened 10 bounds.
Tried aggregator 1 time.
Detecting symmetries...
MIP Presolve eliminated 10 rows and 0 columns.
MIP Presolve modified 180 coefficients.
Reduced MIP has 112 rows, 120 columns, and 490 nonzeros.
Reduced MIP has 110 binaries, 0 generals, 0 SOSs, and 0 indicators.
Presolve time = 0.00 sec. (0.35 ticks)
Probing time = 0.00 sec. (0.26 ticks)
Clique table members: 67.
MIP emphasis: balance optimality and feasibility.
MIP search method: dynamic search.
Parallel mode: deterministic, using up to 20 threads.
Root relaxation solution time = 0.00 sec. (0.22 ticks)

        Nodes                                         Cuts/
   Node  Left     Objective  IInf  Best Integer    Best Bound    ItCnt     Gap

*     0+    0                          473.8481        0.0000           100.00%
      0     0      242.9012    20      473.8481      242.9012       26   48.74%
*     0+    0                          355.9176      242.9012            31.75%
      0     0      286.2716    19      355.9176      Cuts: 29       51   19.57%
      0     0      286.2716    16      355.9176      Cuts: 35       65   19.57%
*     0+    0                          353.5591      286.2716            19.03%
      0     0      286.2716    16      353.5591      Cuts: 35       70   19.03%
*     0+    0                          343.4307      286.2716            16.64%
      0     0      286.2716     6      343.4307    MIRcuts: 1       72   16.64%
      0     0      286.2716    20      343.4307      Cuts: 10       91   16.64%
*     0+    0                          343.1242      286.2716            16.57%
Detecting symmetries...
*     0+    0                          322.8057      286.2716            11.32%
*     0+    0                          291.7361      286.2716             1.87%
      0     0        cutoff            291.7361      291.7361       91    0.00%
Elapsed time = 0.04 sec. (10.97 ticks, tree = 0.01 MB, solutions = 7)

Clique cuts applied:  4
Implied bound cuts applied:  2
Multi commodity flow cuts applied:  1

Root node processing (before b&c):
  Real time             =    0.04 sec. (10.98 ticks)
Parallel b&c, 20 threads:
  Real time             =    0.00 sec. (0.00 ticks)
  Sync time (average)   =    0.00 sec.
  Wait time (average)   =    0.00 sec.
                          ------------
Total (root+branch&cut) =    0.04 sec. (10.98 ticks)

TSP solution for this instance: 0 4 3 2 10 9 6 5 7 8 1 11 
12
Warmstart X[1][0] == 1
Warmstart X[2][4] == 1
Warmstart X[3][3] == 1
Warmstart X[4][2] == 1
Warmstart X[5][10] == 1
Warmstart X[6][9] == 1
Warmstart X[7][6] == 1
Warmstart X[8][5] == 1
Warmstart X[9][7] == 1
Warmstart X[10][8] == 1
Warmstart X[11][1] == 1
---------------------------------------------
Calculate max stage gap for sortie.... 
Stage gap of 4 with smallest length = 23.9385 violated endurance constraint!
---------------------------------------------
Variable z[1][5] was set to 0.
Variable z[1][6] was set to 0.
Variable z[1][7] was set to 0.
Variable z[1][8] was set to 0.
Variable z[1][9] was set to 0.
Variable z[1][10] was set to 0.
Variable z[1][11] was set to 0.
Variable z[1][12] was set to 0.
Variable z[2][6] was set to 0.
Variable z[2][7] was set to 0.
Variable z[2][8] was set to 0.
Variable z[2][9] was set to 0.
Variable z[2][10] was set to 0.
Variable z[2][11] was set to 0.
Variable z[2][12] was set to 0.
Variable z[3][7] was set to 0.
Variable z[3][8] was set to 0.
Variable z[3][9] was set to 0.
Variable z[3][10] was set to 0.
Variable z[3][11] was set to 0.
Variable z[3][12] was set to 0.
Variable z[4][8] was set to 0.
Variable z[4][9] was set to 0.
Variable z[4][10] was set to 0.
Variable z[4][11] was set to 0.
Variable z[4][12] was set to 0.
Variable z[5][9] was set to 0.
Variable z[5][10] was set to 0.
Variable z[5][11] was set to 0.
Variable z[5][12] was set to 0.
Variable z[6][10] was set to 0.
Variable z[6][11] was set to 0.
Variable z[6][12] was set to 0.
Variable z[7][11] was set to 0.
Variable z[7][12] was set to 0.
Variable z[8][12] was set to 0.
Num constraint added = 5346
Warning:  Output names have been modified due to duplicate names or characters invalid in LP format.
Version identifier: 22.1.1.0 | 2022-11-28 | 9160aff4d
CPXPARAM_TimeLimit                               200
CPXPARAM_MIP_Tolerances_Integrality              0
1 of 1 MIP starts provided solutions.
MIP start 'm1' defined initial solution with objective 291.7361.
Tried aggregator 5 times.
MIP Presolve eliminated 6723 rows and 2348 columns.
MIP Presolve modified 2269 coefficients.
Aggregator did 41 substitutions.
Reduced MIP has 1238 rows, 2387 columns, and 44973 nonzeros.
Reduced MIP has 2366 binaries, 0 generals, 0 SOSs, and 0 indicators.
Presolve time = 0.10 sec. (274.91 ticks)
Probing fixed 220 vars, tightened 0 bounds.
Probing changed sense of 4 constraints.
Probing time = 0.03 sec. (64.87 ticks)
Cover probing fixed 0 vars, tightened 23 bounds.
Tried aggregator 2 times.
MIP Presolve eliminated 67 rows and 225 columns.
MIP Presolve modified 336 coefficients.
Aggregator did 14 substitutions.
Reduced MIP has 1153 rows, 2148 columns, and 34722 nonzeros.
Reduced MIP has 2127 binaries, 0 generals, 0 SOSs, and 0 indicators.
Presolve time = 0.03 sec. (55.53 ticks)
Probing time = 0.00 sec. (4.91 ticks)
Tried aggregator 1 time.
Detecting symmetries...
MIP Presolve modified 33 coefficients.
Reduced MIP has 1152 rows, 2148 columns, and 34689 nonzeros.
Reduced MIP has 2127 binaries, 0 generals, 0 SOSs, and 0 indicators.
Presolve time = 0.01 sec. (31.32 ticks)
Probing time = 0.00 sec. (4.82 ticks)
Clique table members: 9923.
MIP emphasis: balance optimality and feasibility.
MIP search method: dynamic search.
Parallel mode: deterministic, using up to 20 threads.
Root relaxation solution time = 0.11 sec. (222.99 ticks)

        Nodes                                         Cuts/
   Node  Left     Objective  IInf  Best Integer    Best Bound    ItCnt     Gap

*     0+    0                          291.7361        0.0000           100.00%
      0     0      207.1883   229      291.7361      207.1883       36   28.98%
      0     0      217.6239   135      291.7361      Cuts: 36     1058   25.40%
      0     0      220.8642   197      291.7361      Cuts: 48     2104   24.29%
      0     0      229.4645   168      291.7361  ZeroHalf: 18     2510   21.35%
      0     0      231.2792   234      291.7361  ZeroHalf: 35     3004   20.72%
      0     0      234.7552   179      291.7361      Cuts: 15     4524   19.53%
Detecting symmetries...
      0     0      239.3999   254      291.7361      Cuts: 18     5211   17.94%
      0     0      241.8633   281      291.7361      Cuts: 12     7534   17.10%
      0     0      244.0814   269      291.7361      Cuts: 16     9363   16.33%
      0     0      244.1344   236      291.7361      Cuts: 15    10086   16.32%
      0     0      244.2611   221      291.7361   ZeroHalf: 2    10550   16.27%
*     0+    0                          272.7037      244.2611            10.43%
      0     0      246.0402   240      272.7037      Cuts: 14    12077    9.78%
      0     0      246.0402   259      272.7037      Cuts: 11    12324    9.78%
      0     0      246.0405   252      272.7037   ZeroHalf: 2    12458    8.55%
Detecting symmetries...
      0     2      246.0405   243      272.7037      249.3779    12462    8.55%
Elapsed time = 1.87 sec. (3301.77 ticks, tree = 0.02 MB, solutions = 2)
    103     8      265.6356    73      272.7037      249.3779    19785    8.55%
*   245    18      integral     0      268.6503      249.3779    33035    7.17%
    388    17      252.1449    84      268.6503      249.5093    56113    7.12%
*   474    20      integral     0      265.5837      249.5100    60914    6.05%
*   669    20      integral     0      263.1253      249.5884    71095    5.14%
    912    17      254.3568   139      263.1253      249.6143   100168    5.13%
    986    16        cutoff            263.1253      250.4186   129622    4.83%
   1036     4      259.1123    94      263.1253      251.9345   143263    4.25%
   1046     3      252.5598   171      263.1253      252.4353   148642    4.06%
   1049     3      258.2858   204      263.1253      252.8117   150676    3.92%

GUB cover cuts applied:  3
Clique cuts applied:  1
Cover cuts applied:  73
Implied bound cuts applied:  51
Flow cuts applied:  2
Mixed integer rounding cuts applied:  1
Zero-half cuts applied:  27
Lift and project cuts applied:  1
Gomory fractional cuts applied:  3

Root node processing (before b&c):
  Real time             =    1.82 sec. (3216.89 ticks)
Parallel b&c, 20 threads:
  Real time             =    1.44 sec. (2324.34 ticks)
  Sync time (average)   =    1.04 sec.
  Wait time (average)   =    0.00 sec.
                          ------------
Total (root+branch&cut) =    3.26 sec. (5541.23 ticks)
Feasible solution found!
Truck nodes:
Stage 1 at customer 0 with arrival time is: 0
Stage 1 at customer 0 with departure time is: 0
Stage 2 at customer 1 with arrival time is: 21.0543
Stage 2 at customer 1 with departure time is: 21.0543
Stage 3 at customer 8 with arrival time is: 72.9844
Stage 3 at customer 8 with departure time is: 72.9844
Stage 4 at customer 7 with arrival time is: 96.335
Stage 4 at customer 7 with departure time is: 96.335
Stage 5 at customer 9 with arrival time is: 127.055
Stage 5 at customer 9 with departure time is: 128.055
Stage 6 at customer 5 with arrival time is: 143.85
Stage 6 at customer 5 with departure time is: 147.742
Stage 7 at customer 6 with arrival time is: 153.727
Stage 7 at customer 6 with departure time is: 159.65
Stage 8 at customer 2 with arrival time is: 203.255
Stage 8 at customer 2 with departure time is: 203.255
Stage 9 at customer 3 with arrival time is: 229.838
Stage 9 at customer 3 with departure time is: 229.838
Stage 10 at customer 11 with arrival time is: 263.125
Stage 10 at customer 11 with departure time is: 263.125
Truck arcs:
Arc 1 connecting 0 and 1 with cost 21.0543 
Arc 2 connecting 1 and 8 with cost 51.9301 
Arc 3 connecting 8 and 7 with cost 23.3506 
Arc 4 connecting 7 and 9 with cost 30.7197 
Arc 5 connecting 9 and 5 with cost 15.7953 
Arc 6 connecting 5 and 6 with cost 5.98463 
Arc 7 connecting 6 and 2 with cost 43.6043 
Arc 8 connecting 2 and 3 with cost 26.5835 
Arc 9 connecting 3 and 11 with cost 33.2872 
Customer 4 served by drone.
Drone fly from 5 at stage 6 to serve 4 and then fly back to 6 at stage 7. 
Truck arcs during this sortie: 5--->6
Truck travel time from stage 6 to 7 is: 5.98463
Total drone travel time: 10.9079
Drone arrival time: 158.65
Truck arrival time: 153.727
Truck departure time = max(d/a, t/a) plus (sl/sr): 159.65
Customer 10 served by drone.
Drone fly from 9 at stage 5 to serve 10 and then fly back to 5 at stage 6. 
Truck arcs during this sortie: 9--->5
Truck travel time from stage 5 to 6 is: 15.7953
Total drone travel time: 17.6877
Drone arrival time: 145.742
Truck arrival time: 143.85
Truck departure time = max(d/a, t/a) plus (sl/sr): 147.742
Done!
-------------------------Re-calculated objective-----------------------
263.125
------------------------------------------------------------------------
Solve time: 3.261
OBJECTIVE VALUE: 263.125, NUMBER OF SORTIES: 2.
Number of revisit: 0
In write mode
